NAME : Problem-6
TYPE : HVRP
DIMENSION : 20
EDGE_WEIGHT_TYPE : EUC_2D

NODE_COORD_SECTION
1 20 20
2 37 52
3 49 49
4 52 64
5 20 26
6 40 30
7 21 47
8 17 63
9 31 62
10 52 33
11 51 21
12 42 41
13 31 32
14 5 25
15 12 42
16 36 16
17 52 41
18 27 23
19 17 33
20 13 13
21 57 58

DEMAND_SECTION
1 0
2 7
3 30
4 16
5 9
6 21
7 15
8 19
9 23
10 11
11 5
12 19
13 29
14 23
15 21
16 10
17 15
18 3
19 41
20 9
21 28

VEHICLE_TYPES
# id capacity fixed_cost var_cost
A 60  1000 1 
B 80  1500 1 
C 150 3000 1 
END_VEHICLE_TYPES

DEPOT_SECTION
1
-1
EOF
